sing20160715.12
TTAA 65121 48698
99006 27235 33003 00076 26432 29006 92760 23056 32510
85494 18430 01006 70139 09622 09006 50586 04723 09014
40759 15556 10015 30970 29340 10024 25098 39530 07021
20246 52732 07525 15425 68149 07017 10657 83947 10040
88101 84543 10037
77999=
TTCC 65127 48698
70865 69170 11524
88999
77999=
TTDD 6512/ 48698
11928 77759 22873 79359 33756 67373 44628 72368 55535
69172
21212 11966 10544 22897 06041 33832 07044 44713 11522
55641 08030 66613 09532 77535 09050=
